c File: instances/26_0.50_2.col
c
c Description: Random graph of size 26 vertices and P(0.49999999999999994) of edges between any two vertices.
p col 26 325
e 1 4
e 1 7
e 1 9
e 1 13
e 1 14
e 1 19
e 1 20
e 1 21
e 1 23
e 1 26
e 2 4
e 2 5
e 2 7
e 2 12
e 2 13
e 2 14
e 2 15
e 2 17
e 2 19
e 2 20
e 2 22
e 3 4
e 3 5
e 3 6
e 3 10
e 3 12
e 3 16
e 3 17
e 3 23
e 3 25
e 4 5
e 4 6
e 4 8
e 4 10
e 4 14
e 4 16
e 4 18
e 4 19
e 4 23
e 4 26
e 5 6
e 5 8
e 5 9
e 5 11
e 5 13
e 5 14
e 5 15
e 5 17
e 5 22
e 5 24
e 5 25
e 5 26
e 6 10
e 6 12
e 6 15
e 6 17
e 6 23
e 6 24
e 7 15
e 7 20
e 7 23
e 7 25
e 8 10
e 8 11
e 8 14
e 8 15
e 8 16
e 8 18
e 8 20
e 8 21
e 8 22
e 8 23
e 8 24
e 8 26
e 9 12
e 9 14
e 9 15
e 9 16
e 9 18
e 9 20
e 9 21
e 9 22
e 9 23
e 9 24
e 10 11
e 10 12
e 10 13
e 10 14
e 10 15
e 10 16
e 10 18
e 10 19
e 10 21
e 10 23
e 10 24
e 11 13
e 11 17
e 11 18
e 11 20
e 11 23
e 11 24
e 11 25
e 11 26
e 12 15
e 12 18
e 12 19
e 12 23
e 12 24
e 12 25
e 13 14
e 13 19
e 13 21
e 13 23
e 13 25
e 13 26
e 14 16
e 14 18
e 14 19
e 14 22
e 14 24
e 14 25
e 14 26
e 15 17
e 15 18
e 15 19
e 15 21
e 15 24
e 16 17
e 16 18
e 16 19
e 16 20
e 16 22
e 16 24
e 16 26
e 17 23
e 17 24
e 17 25
e 18 19
e 18 20
e 18 22
e 18 23
e 18 26
e 19 21
e 20 21
e 20 26
e 21 22
e 21 23
e 21 25
e 22 25
e 22 26
e 23 24
e 23 26
e 24 25
e 24 26